p cnf 635 1643
a 1 2 3 4 5 6 7 8 9 10 11 12 13 14 15 16 17 18 19 20 21 22 23 24 25 26 27 28 29 30 31 32 33 34 35 36 37 38 39 40 41 42 43 44 45 46 47 48 49 50 51 52 53 54 55 56 57 58 59 60 61 62 63 64 0
e 65 66 67 68 69 70 71 72 73 74 75 76 77 78 79 80 81 82 83 84 85 86 87 88 89 90 91 92 93 94 95 96 97 98 99 100 101 102 103 104 105 106 107 108 109 110 111 112 113 114 115 116 117 118 119 120 121 122 123 124 125 126 127 128 129 130 131 132 133 134 135 136 137 138 139 140 141 142 143 144 145 146 147 148 149 150 151 152 153 154 155 156 157 158 159 160 161 162 163 164 165 166 167 168 169 170 171 172 173 174 175 176 177 178 179 180 181 182 183 184 185 186 187 188 189 190 191 192 193 194 195 196 197 198 199 200 201 202 203 204 205 206 207 208 209 210 211 212 213 214 215 216 217 218 219 220 221 222 223 224 225 226 227 228 229 230 231 232 233 234 235 236 237 238 239 240 241 242 243 244 245 246 247 248 249 250 251 252 253 254 255 256 257 258 259 260 261 262 263 264 265 266 267 268 269 270 271 272 273 274 275 276 277 278 279 280 281 282 283 284 285 286 287 288 289 290 291 292 293 294 295 296 297 298 299 300 301 302 303 304 305 306 307 308 309 310 311 312 313 314 315 316 317 318 319 320 321 322 323 324 325 326 327 328 329 330 331 332 333 334 335 336 337 338 339 340 341 342 343 344 345 346 347 348 349 350 351 352 353 354 355 356 357 358 359 360 361 362 363 364 365 366 367 368 369 370 371 372 373 374 375 376 377 378 379 380 381 382 383 384 385 386 387 388 389 390 391 392 393 394 395 396 397 398 399 400 401 402 403 404 405 406 407 408 409 410 411 412 413 414 415 416 417 418 419 420 421 422 423 424 425 426 427 428 429 430 431 432 433 434 435 436 437 438 439 440 441 442 443 444 445 446 447 448 449 450 451 452 453 454 455 456 457 458 459 460 461 462 463 464 465 466 467 468 469 470 471 472 473 474 475 476 477 478 479 480 481 482 483 484 485 486 487 488 489 490 491 492 493 494 495 496 497 498 499 500 501 502 503 504 505 506 507 508 509 510 511 512 513 514 515 516 517 518 519 520 521 522 523 524 525 526 527 528 529 530 531 532 533 534 535 536 537 538 539 540 541 542 543 544 545 546 547 548 549 550 551 552 553 554 555 556 557 558 559 560 561 562 563 564 565 566 567 568 569 570 571 572 573 574 575 576 577 578 579 580 581 582 583 584 585 586 587 588 589 590 591 592 593 594 595 596 597 598 599 600 601 602 603 604 605 606 607 608 609 610 611 612 613 614 615 616 617 618 619 620 621 622 623 624 625 626 627 628 629 630 631 632 633 0
81 -65 0
-81 65 0
82 -66 -81 0
82 66 81 0
-82 -66 81 0
-82 66 -81 0
83 -66 -81 0
-83 81 0
-83 66 0
84 -81 0
84 -83 0
84 -66 0
-84 66 81 83 0
85 -67 -84 0
85 67 84 0
-85 -67 84 0
-85 67 -84 0
86 -67 -84 0
-86 84 0
-86 67 0
87 -84 0
87 -86 0
87 -67 0
-87 67 84 86 0
88 -68 -87 0
88 68 87 0
-88 -68 87 0
-88 68 -87 0
89 -68 -87 0
-89 87 0
-89 68 0
90 -87 0
90 -89 0
90 -68 0
-90 68 87 89 0
91 -69 -90 0
91 69 90 0
-91 -69 90 0
-91 69 -90 0
92 -69 -90 0
-92 90 0
-92 69 0
93 -90 0
93 -92 0
93 -69 0
-93 69 90 92 0
94 -70 -93 0
94 70 93 0
-94 -70 93 0
-94 70 -93 0
95 -70 -93 0
-95 93 0
-95 70 0
96 -93 0
96 -95 0
96 -70 0
-96 70 93 95 0
97 -71 -96 0
97 71 96 0
-97 -71 96 0
-97 71 -96 0
98 -71 -96 0
-98 96 0
-98 71 0
99 -96 0
99 -98 0
99 -71 0
-99 71 96 98 0
100 -72 -99 0
100 72 99 0
-100 -72 99 0
-100 72 -99 0
101 -72 -99 0
-101 99 0
-101 72 0
102 -99 0
102 -101 0
102 -72 0
-102 72 99 101 0
103 -73 -102 0
103 73 102 0
-103 -73 102 0
-103 73 -102 0
104 -73 -102 0
-104 102 0
-104 73 0
105 -102 0
105 -104 0
105 -73 0
-105 73 102 104 0
106 -74 -105 0
106 74 105 0
-106 -74 105 0
-106 74 -105 0
107 -74 -105 0
-107 105 0
-107 74 0
108 -105 0
108 -107 0
108 -74 0
-108 74 105 107 0
109 -75 -108 0
109 75 108 0
-109 -75 108 0
-109 75 -108 0
110 -75 -108 0
-110 108 0
-110 75 0
111 -108 0
111 -110 0
111 -75 0
-111 75 108 110 0
112 -76 -111 0
112 76 111 0
-112 -76 111 0
-112 76 -111 0
113 -76 -111 0
-113 111 0
-113 76 0
114 -111 0
114 -113 0
114 -76 0
-114 76 111 113 0
115 -77 -114 0
115 77 114 0
-115 -77 114 0
-115 77 -114 0
116 -77 -114 0
-116 114 0
-116 77 0
117 -114 0
117 -116 0
117 -77 0
-117 77 114 116 0
118 -78 -117 0
118 78 117 0
-118 -78 117 0
-118 78 -117 0
119 -78 -117 0
-119 117 0
-119 78 0
120 -117 0
120 -119 0
120 -78 0
-120 78 117 119 0
121 -79 -120 0
121 79 120 0
-121 -79 120 0
-121 79 -120 0
122 -79 -120 0
-122 120 0
-122 79 0
123 -120 0
123 -122 0
123 -79 0
-123 79 120 122 0
124 -80 -123 0
124 80 123 0
-124 -80 123 0
-124 80 -123 0
125 -80 -123 0
-125 123 0
-125 80 0
126 -123 0
126 -125 0
126 -80 0
-126 80 123 125 0
127 -65 0
-127 65 0
128 82 -127 0
-128 127 0
-128 -82 0
129 -128 0
-129 128 0
130 85 -129 0
-130 129 0
-130 -85 0
131 -130 0
-131 130 0
132 88 -131 0
-132 131 0
-132 -88 0
133 -132 0
-133 132 0
134 91 -133 0
-134 133 0
-134 -91 0
135 -134 0
-135 134 0
136 94 -135 0
-136 135 0
-136 -94 0
137 -136 0
-137 136 0
138 97 -137 0
-138 137 0
-138 -97 0
139 -138 0
-139 138 0
140 100 -139 0
-140 139 0
-140 -100 0
141 -140 0
-141 140 0
142 103 -141 0
-142 141 0
-142 -103 0
143 -142 0
-143 142 0
144 106 -143 0
-144 143 0
-144 -106 0
145 -144 0
-145 144 0
146 109 -145 0
-146 145 0
-146 -109 0
147 -146 0
-147 146 0
148 112 -147 0
-148 147 0
-148 -112 0
149 -148 0
-149 148 0
150 115 -149 0
-150 149 0
-150 -115 0
151 -150 0
-151 150 0
152 118 -151 0
-152 151 0
-152 -118 0
153 -152 0
-153 152 0
154 121 -153 0
-154 153 0
-154 -121 0
155 -154 0
-155 154 0
156 124 -155 0
-156 155 0
-156 -124 0
157 -156 0
-157 156 0
159 0
-159 157 -158 0
192 160 -176 0
192 -160 176 0
-192 160 176 0
-192 -160 -176 0
193 161 -177 0
193 -161 177 0
-193 161 177 0
-193 -161 -177 0
194 162 -178 0
194 -162 178 0
-194 162 178 0
-194 -162 -178 0
195 163 -179 0
195 -163 179 0
-195 163 179 0
-195 -163 -179 0
196 164 -180 0
196 -164 180 0
-196 164 180 0
-196 -164 -180 0
197 165 -181 0
197 -165 181 0
-197 165 181 0
-197 -165 -181 0
198 166 -182 0
198 -166 182 0
-198 166 182 0
-198 -166 -182 0
199 167 -183 0
199 -167 183 0
-199 167 183 0
-199 -167 -183 0
200 168 -184 0
200 -168 184 0
-200 168 184 0
-200 -168 -184 0
201 169 -185 0
201 -169 185 0
-201 169 185 0
-201 -169 -185 0
202 170 -186 0
202 -170 186 0
-202 170 186 0
-202 -170 -186 0
203 171 -187 0
203 -171 187 0
-203 171 187 0
-203 -171 -187 0
204 172 -188 0
204 -172 188 0
-204 172 188 0
-204 -172 -188 0
205 173 -189 0
205 -173 189 0
-205 173 189 0
-205 -173 -189 0
206 174 -190 0
206 -174 190 0
-206 174 190 0
-206 -174 -190 0
207 175 -191 0
207 -175 191 0
-207 175 191 0
-207 -175 -191 0
208 192 193 194 195 196 197 198 199 200 201 202 203 204 205 206 207 0
-208 -207 0
-208 -206 0
-208 -205 0
-208 -204 0
-208 -203 0
-208 -202 0
-208 -201 0
-208 -200 0
-208 -199 0
-208 -198 0
-208 -197 0
-208 -196 0
-208 -195 0
-208 -194 0
-208 -193 0
-208 -192 0
209 65 0
-209 -65 0
210 -82 -209 0
210 82 209 0
-210 -82 209 0
-210 82 -209 0
211 -82 -209 0
-211 209 0
-211 82 0
212 -209 0
212 -211 0
212 -82 0
-212 82 209 211 0
213 -85 -212 0
213 85 212 0
-213 -85 212 0
-213 85 -212 0
214 -85 -212 0
-214 212 0
-214 85 0
215 -212 0
215 -214 0
215 -85 0
-215 85 212 214 0
216 -88 -215 0
216 88 215 0
-216 -88 215 0
-216 88 -215 0
217 -88 -215 0
-217 215 0
-217 88 0
218 -215 0
218 -217 0
218 -88 0
-218 88 215 217 0
219 -91 -218 0
219 91 218 0
-219 -91 218 0
-219 91 -218 0
220 -91 -218 0
-220 218 0
-220 91 0
221 -218 0
221 -220 0
221 -91 0
-221 91 218 220 0
222 -94 -221 0
222 94 221 0
-222 -94 221 0
-222 94 -221 0
223 -94 -221 0
-223 221 0
-223 94 0
224 -221 0
224 -223 0
224 -94 0
-224 94 221 223 0
225 -97 -224 0
225 97 224 0
-225 -97 224 0
-225 97 -224 0
226 -97 -224 0
-226 224 0
-226 97 0
227 -224 0
227 -226 0
227 -97 0
-227 97 224 226 0
228 -100 -227 0
228 100 227 0
-228 -100 227 0
-228 100 -227 0
229 -100 -227 0
-229 227 0
-229 100 0
230 -227 0
230 -229 0
230 -100 0
-230 100 227 229 0
231 -103 -230 0
231 103 230 0
-231 -103 230 0
-231 103 -230 0
232 -103 -230 0
-232 230 0
-232 103 0
233 -230 0
233 -232 0
233 -103 0
-233 103 230 232 0
234 -106 -233 0
234 106 233 0
-234 -106 233 0
-234 106 -233 0
235 -106 -233 0
-235 233 0
-235 106 0
236 -233 0
236 -235 0
236 -106 0
-236 106 233 235 0
237 -109 -236 0
237 109 236 0
-237 -109 236 0
-237 109 -236 0
238 -109 -236 0
-238 236 0
-238 109 0
239 -236 0
239 -238 0
239 -109 0
-239 109 236 238 0
240 -112 -239 0
240 112 239 0
-240 -112 239 0
-240 112 -239 0
241 -112 -239 0
-241 239 0
-241 112 0
242 -239 0
242 -241 0
242 -112 0
-242 112 239 241 0
243 -115 -242 0
243 115 242 0
-243 -115 242 0
-243 115 -242 0
244 -115 -242 0
-244 242 0
-244 115 0
245 -242 0
245 -244 0
245 -115 0
-245 115 242 244 0
246 -118 -245 0
246 118 245 0
-246 -118 245 0
-246 118 -245 0
247 -118 -245 0
-247 245 0
-247 118 0
248 -245 0
248 -247 0
248 -118 0
-248 118 245 247 0
249 -121 -248 0
249 121 248 0
-249 -121 248 0
-249 121 -248 0
250 -121 -248 0
-250 248 0
-250 121 0
251 -248 0
251 -250 0
251 -121 0
-251 121 248 250 0
252 -124 -251 0
252 124 251 0
-252 -124 251 0
-252 124 -251 0
253 -124 -251 0
-253 251 0
-253 124 0
254 -251 0
254 -253 0
254 -124 0
-254 124 251 253 0
255 65 0
-255 -65 0
256 210 -255 0
-256 255 0
-256 -210 0
257 -256 0
-257 256 0
258 213 -257 0
-258 257 0
-258 -213 0
259 -258 0
-259 258 0
260 216 -259 0
-260 259 0
-260 -216 0
261 -260 0
-261 260 0
262 219 -261 0
-262 261 0
-262 -219 0
263 -262 0
-263 262 0
264 222 -263 0
-264 263 0
-264 -222 0
265 -264 0
-265 264 0
266 225 -265 0
-266 265 0
-266 -225 0
267 -266 0
-267 266 0
268 228 -267 0
-268 267 0
-268 -228 0
269 -268 0
-269 268 0
270 231 -269 0
-270 269 0
-270 -231 0
271 -270 0
-271 270 0
272 234 -271 0
-272 271 0
-272 -234 0
273 -272 0
-273 272 0
274 237 -273 0
-274 273 0
-274 -237 0
275 -274 0
-275 274 0
276 240 -275 0
-276 275 0
-276 -240 0
277 -276 0
-277 276 0
278 243 -277 0
-278 277 0
-278 -243 0
279 -278 0
-279 278 0
280 246 -279 0
-280 279 0
-280 -246 0
281 -280 0
-281 280 0
282 249 -281 0
-282 281 0
-282 -249 0
283 -282 0
-283 282 0
284 252 -283 0
-284 283 0
-284 -252 0
285 -284 0
-285 284 0
287 0
-287 285 -286 0
288 1 65 0
288 -1 -65 0
-288 1 -65 0
-288 -1 65 0
289 2 -82 0
289 -2 82 0
-289 2 82 0
-289 -2 -82 0
290 3 -85 0
290 -3 85 0
-290 3 85 0
-290 -3 -85 0
291 4 -88 0
291 -4 88 0
-291 4 88 0
-291 -4 -88 0
292 5 -91 0
292 -5 91 0
-292 5 91 0
-292 -5 -91 0
293 6 -94 0
293 -6 94 0
-293 6 94 0
-293 -6 -94 0
294 7 -97 0
294 -7 97 0
-294 7 97 0
-294 -7 -97 0
295 8 -100 0
295 -8 100 0
-295 8 100 0
-295 -8 -100 0
296 9 -103 0
296 -9 103 0
-296 9 103 0
-296 -9 -103 0
297 10 -106 0
297 -10 106 0
-297 10 106 0
-297 -10 -106 0
298 11 -109 0
298 -11 109 0
-298 11 109 0
-298 -11 -109 0
299 12 -112 0
299 -12 112 0
-299 12 112 0
-299 -12 -112 0
300 13 -115 0
300 -13 115 0
-300 13 115 0
-300 -13 -115 0
301 14 -118 0
301 -14 118 0
-301 14 118 0
-301 -14 -118 0
302 15 -121 0
302 -15 121 0
-302 15 121 0
-302 -15 -121 0
303 16 -124 0
303 -16 124 0
-303 16 124 0
-303 -16 -124 0
304 288 289 290 291 292 293 294 295 296 297 298 299 300 301 302 303 0
-304 -303 0
-304 -302 0
-304 -301 0
-304 -300 0
-304 -299 0
-304 -298 0
-304 -297 0
-304 -296 0
-304 -295 0
-304 -294 0
-304 -293 0
-304 -292 0
-304 -291 0
-304 -290 0
-304 -289 0
-304 -288 0
305 33 -65 0
305 -33 65 0
-305 33 65 0
-305 -33 -65 0
306 34 -210 0
306 -34 210 0
-306 34 210 0
-306 -34 -210 0
307 35 -213 0
307 -35 213 0
-307 35 213 0
-307 -35 -213 0
308 36 -216 0
308 -36 216 0
-308 36 216 0
-308 -36 -216 0
309 37 -219 0
309 -37 219 0
-309 37 219 0
-309 -37 -219 0
310 38 -222 0
310 -38 222 0
-310 38 222 0
-310 -38 -222 0
311 39 -225 0
311 -39 225 0
-311 39 225 0
-311 -39 -225 0
312 40 -228 0
312 -40 228 0
-312 40 228 0
-312 -40 -228 0
313 41 -231 0
313 -41 231 0
-313 41 231 0
-313 -41 -231 0
314 42 -234 0
314 -42 234 0
-314 42 234 0
-314 -42 -234 0
315 43 -237 0
315 -43 237 0
-315 43 237 0
-315 -43 -237 0
316 44 -240 0
316 -44 240 0
-316 44 240 0
-316 -44 -240 0
317 45 -243 0
317 -45 243 0
-317 45 243 0
-317 -45 -243 0
318 46 -246 0
318 -46 246 0
-318 46 246 0
-318 -46 -246 0
319 47 -249 0
319 -47 249 0
-319 47 249 0
-319 -47 -249 0
320 48 -252 0
320 -48 252 0
-320 48 252 0
-320 -48 -252 0
321 305 306 307 308 309 310 311 312 313 314 315 316 317 318 319 320 0
-321 -320 0
-321 -319 0
-321 -318 0
-321 -317 0
-321 -316 0
-321 -315 0
-321 -314 0
-321 -313 0
-321 -312 0
-321 -311 0
-321 -310 0
-321 -309 0
-321 -308 0
-321 -307 0
-321 -306 0
-321 -305 0
322 17 -160 0
322 -17 160 0
-322 17 160 0
-322 -17 -160 0
323 18 -161 0
323 -18 161 0
-323 18 161 0
-323 -18 -161 0
324 19 -162 0
324 -19 162 0
-324 19 162 0
-324 -19 -162 0
325 20 -163 0
325 -20 163 0
-325 20 163 0
-325 -20 -163 0
326 21 -164 0
326 -21 164 0
-326 21 164 0
-326 -21 -164 0
327 22 -165 0
327 -22 165 0
-327 22 165 0
-327 -22 -165 0
328 23 -166 0
328 -23 166 0
-328 23 166 0
-328 -23 -166 0
329 24 -167 0
329 -24 167 0
-329 24 167 0
-329 -24 -167 0
330 25 -168 0
330 -25 168 0
-330 25 168 0
-330 -25 -168 0
331 26 -169 0
331 -26 169 0
-331 26 169 0
-331 -26 -169 0
332 27 -170 0
332 -27 170 0
-332 27 170 0
-332 -27 -170 0
333 28 -171 0
333 -28 171 0
-333 28 171 0
-333 -28 -171 0
334 29 -172 0
334 -29 172 0
-334 29 172 0
-334 -29 -172 0
335 30 -173 0
335 -30 173 0
-335 30 173 0
-335 -30 -173 0
336 31 -174 0
336 -31 174 0
-336 31 174 0
-336 -31 -174 0
337 32 -175 0
337 -32 175 0
-337 32 175 0
-337 -32 -175 0
338 322 323 324 325 326 327 328 329 330 331 332 333 334 335 336 337 0
-338 -337 0
-338 -336 0
-338 -335 0
-338 -334 0
-338 -333 0
-338 -332 0
-338 -331 0
-338 -330 0
-338 -329 0
-338 -328 0
-338 -327 0
-338 -326 0
-338 -325 0
-338 -324 0
-338 -323 0
-338 -322 0
355 49 -339 0
355 -49 339 0
-355 49 339 0
-355 -49 -339 0
356 50 -340 0
356 -50 340 0
-356 50 340 0
-356 -50 -340 0
357 51 -341 0
357 -51 341 0
-357 51 341 0
-357 -51 -341 0
358 52 -342 0
358 -52 342 0
-358 52 342 0
-358 -52 -342 0
359 53 -343 0
359 -53 343 0
-359 53 343 0
-359 -53 -343 0
360 54 -344 0
360 -54 344 0
-360 54 344 0
-360 -54 -344 0
361 55 -345 0
361 -55 345 0
-361 55 345 0
-361 -55 -345 0
362 56 -346 0
362 -56 346 0
-362 56 346 0
-362 -56 -346 0
363 57 -347 0
363 -57 347 0
-363 57 347 0
-363 -57 -347 0
364 58 -348 0
364 -58 348 0
-364 58 348 0
-364 -58 -348 0
365 59 -349 0
365 -59 349 0
-365 59 349 0
-365 -59 -349 0
366 60 -350 0
366 -60 350 0
-366 60 350 0
-366 -60 -350 0
367 61 -351 0
367 -61 351 0
-367 61 351 0
-367 -61 -351 0
368 62 -352 0
368 -62 352 0
-368 62 352 0
-368 -62 -352 0
369 63 -353 0
369 -63 353 0
-369 63 353 0
-369 -63 -353 0
370 64 -354 0
370 -64 354 0
-370 64 354 0
-370 -64 -354 0
371 355 356 357 358 359 360 361 362 363 364 365 366 367 368 369 370 0
-371 -370 0
-371 -369 0
-371 -368 0
-371 -367 0
-371 -366 0
-371 -365 0
-371 -364 0
-371 -363 0
-371 -362 0
-371 -361 0
-371 -360 0
-371 -359 0
-371 -358 0
-371 -357 0
-371 -356 0
-371 -355 0
372 157 -208 285 -304 -321 -338 -371 0
-372 371 0
-372 338 0
-372 321 0
-372 304 0
-372 -285 0
-372 208 0
-372 -157 0
405 373 -389 0
-405 -373 0
-405 389 0
406 373 0
406 -389 0
406 -405 0
-406 -373 389 405 0
407 374 -390 0
-407 -374 0
-407 390 0
408 -390 -406 0
-408 406 0
-408 390 0
409 374 -406 0
-409 406 0
-409 -374 0
410 -409 0
410 -408 0
410 -407 0
-410 407 408 409 0
411 375 -391 0
-411 -375 0
-411 391 0
412 -391 -410 0
-412 410 0
-412 391 0
413 375 -410 0
-413 410 0
-413 -375 0
414 -413 0
414 -412 0
414 -411 0
-414 411 412 413 0
415 376 -392 0
-415 -376 0
-415 392 0
416 -392 -414 0
-416 414 0
-416 392 0
417 376 -414 0
-417 414 0
-417 -376 0
418 -417 0
418 -416 0
418 -415 0
-418 415 416 417 0
419 377 -393 0
-419 -377 0
-419 393 0
420 -393 -418 0
-420 418 0
-420 393 0
421 377 -418 0
-421 418 0
-421 -377 0
422 -421 0
422 -420 0
422 -419 0
-422 419 420 421 0
423 378 -394 0
-423 -378 0
-423 394 0
424 -394 -422 0
-424 422 0
-424 394 0
425 378 -422 0
-425 422 0
-425 -378 0
426 -425 0
426 -424 0
426 -423 0
-426 423 424 425 0
427 379 -395 0
-427 -379 0
-427 395 0
428 -395 -426 0
-428 426 0
-428 395 0
429 379 -426 0
-429 426 0
-429 -379 0
430 -429 0
430 -428 0
430 -427 0
-430 427 428 429 0
431 380 -396 0
-431 -380 0
-431 396 0
432 -396 -430 0
-432 430 0
-432 396 0
433 380 -430 0
-433 430 0
-433 -380 0
434 -433 0
434 -432 0
434 -431 0
-434 431 432 433 0
435 381 -397 0
-435 -381 0
-435 397 0
436 -397 -434 0
-436 434 0
-436 397 0
437 381 -434 0
-437 434 0
-437 -381 0
438 -437 0
438 -436 0
438 -435 0
-438 435 436 437 0
439 382 -398 0
-439 -382 0
-439 398 0
440 -398 -438 0
-440 438 0
-440 398 0
441 382 -438 0
-441 438 0
-441 -382 0
442 -441 0
442 -440 0
442 -439 0
-442 439 440 441 0
443 383 -399 0
-443 -383 0
-443 399 0
444 -399 -442 0
-444 442 0
-444 399 0
445 383 -442 0
-445 442 0
-445 -383 0
446 -445 0
446 -444 0
446 -443 0
-446 443 444 445 0
447 384 -400 0
-447 -384 0
-447 400 0
448 -400 -446 0
-448 446 0
-448 400 0
449 384 -446 0
-449 446 0
-449 -384 0
450 -449 0
450 -448 0
450 -447 0
-450 447 448 449 0
451 385 -401 0
-451 -385 0
-451 401 0
452 -401 -450 0
-452 450 0
-452 401 0
453 385 -450 0
-453 450 0
-453 -385 0
454 -453 0
454 -452 0
454 -451 0
-454 451 452 453 0
455 386 -402 0
-455 -386 0
-455 402 0
456 -402 -454 0
-456 454 0
-456 402 0
457 386 -454 0
-457 454 0
-457 -386 0
458 -457 0
458 -456 0
458 -455 0
-458 455 456 457 0
459 387 -403 0
-459 -387 0
-459 403 0
460 -403 -458 0
-460 458 0
-460 403 0
461 387 -458 0
-461 458 0
-461 -387 0
462 -461 0
462 -460 0
462 -459 0
-462 459 460 461 0
463 388 -404 0
-463 -388 0
-463 404 0
464 -404 -462 0
-464 462 0
-464 404 0
465 388 -462 0
-465 462 0
-465 -388 0
466 -465 0
466 -464 0
466 -463 0
-466 463 464 465 0
468 0
-468 466 -467 0
501 469 -485 0
-501 -469 0
-501 485 0
502 469 0
502 -485 0
502 -501 0
-502 -469 485 501 0
503 470 -486 0
-503 -470 0
-503 486 0
504 -486 -502 0
-504 502 0
-504 486 0
505 470 -502 0
-505 502 0
-505 -470 0
506 -505 0
506 -504 0
506 -503 0
-506 503 504 505 0
507 471 -487 0
-507 -471 0
-507 487 0
508 -487 -506 0
-508 506 0
-508 487 0
509 471 -506 0
-509 506 0
-509 -471 0
510 -509 0
510 -508 0
510 -507 0
-510 507 508 509 0
511 472 -488 0
-511 -472 0
-511 488 0
512 -488 -510 0
-512 510 0
-512 488 0
513 472 -510 0
-513 510 0
-513 -472 0
514 -513 0
514 -512 0
514 -511 0
-514 511 512 513 0
515 473 -489 0
-515 -473 0
-515 489 0
516 -489 -514 0
-516 514 0
-516 489 0
517 473 -514 0
-517 514 0
-517 -473 0
518 -517 0
518 -516 0
518 -515 0
-518 515 516 517 0
519 474 -490 0
-519 -474 0
-519 490 0
520 -490 -518 0
-520 518 0
-520 490 0
521 474 -518 0
-521 518 0
-521 -474 0
522 -521 0
522 -520 0
522 -519 0
-522 519 520 521 0
523 475 -491 0
-523 -475 0
-523 491 0
524 -491 -522 0
-524 522 0
-524 491 0
525 475 -522 0
-525 522 0
-525 -475 0
526 -525 0
526 -524 0
526 -523 0
-526 523 524 525 0
527 476 -492 0
-527 -476 0
-527 492 0
528 -492 -526 0
-528 526 0
-528 492 0
529 476 -526 0
-529 526 0
-529 -476 0
530 -529 0
530 -528 0
530 -527 0
-530 527 528 529 0
531 477 -493 0
-531 -477 0
-531 493 0
532 -493 -530 0
-532 530 0
-532 493 0
533 477 -530 0
-533 530 0
-533 -477 0
534 -533 0
534 -532 0
534 -531 0
-534 531 532 533 0
535 478 -494 0
-535 -478 0
-535 494 0
536 -494 -534 0
-536 534 0
-536 494 0
537 478 -534 0
-537 534 0
-537 -478 0
538 -537 0
538 -536 0
538 -535 0
-538 535 536 537 0
539 479 -495 0
-539 -479 0
-539 495 0
540 -495 -538 0
-540 538 0
-540 495 0
541 479 -538 0
-541 538 0
-541 -479 0
542 -541 0
542 -540 0
542 -539 0
-542 539 540 541 0
543 480 -496 0
-543 -480 0
-543 496 0
544 -496 -542 0
-544 542 0
-544 496 0
545 480 -542 0
-545 542 0
-545 -480 0
546 -545 0
546 -544 0
546 -543 0
-546 543 544 545 0
547 481 -497 0
-547 -481 0
-547 497 0
548 -497 -546 0
-548 546 0
-548 497 0
549 481 -546 0
-549 546 0
-549 -481 0
550 -549 0
550 -548 0
550 -547 0
-550 547 548 549 0
551 482 -498 0
-551 -482 0
-551 498 0
552 -498 -550 0
-552 550 0
-552 498 0
553 482 -550 0
-553 550 0
-553 -482 0
554 -553 0
554 -552 0
554 -551 0
-554 551 552 553 0
555 483 -499 0
-555 -483 0
-555 499 0
556 -499 -554 0
-556 554 0
-556 499 0
557 483 -554 0
-557 554 0
-557 -483 0
558 -557 0
558 -556 0
558 -555 0
-558 555 556 557 0
559 484 -500 0
-559 -484 0
-559 500 0
560 -500 -558 0
-560 558 0
-560 500 0
561 484 -558 0
-561 558 0
-561 -484 0
562 -561 0
562 -560 0
562 -559 0
-562 559 560 561 0
564 0
-564 562 -563 0
565 -372 0
565 466 562 0
-565 -562 0
-565 -466 0
566 1 -33 0
566 -1 33 0
-566 1 33 0
-566 -1 -33 0
567 2 -34 0
567 -2 34 0
-567 2 34 0
-567 -2 -34 0
568 3 -35 0
568 -3 35 0
-568 3 35 0
-568 -3 -35 0
569 4 -36 0
569 -4 36 0
-569 4 36 0
-569 -4 -36 0
570 5 -37 0
570 -5 37 0
-570 5 37 0
-570 -5 -37 0
571 6 -38 0
571 -6 38 0
-571 6 38 0
-571 -6 -38 0
572 7 -39 0
572 -7 39 0
-572 7 39 0
-572 -7 -39 0
573 8 -40 0
573 -8 40 0
-573 8 40 0
-573 -8 -40 0
574 9 -41 0
574 -9 41 0
-574 9 41 0
-574 -9 -41 0
575 10 -42 0
575 -10 42 0
-575 10 42 0
-575 -10 -42 0
576 11 -43 0
576 -11 43 0
-576 11 43 0
-576 -11 -43 0
577 12 -44 0
577 -12 44 0
-577 12 44 0
-577 -12 -44 0
578 13 -45 0
578 -13 45 0
-578 13 45 0
-578 -13 -45 0
579 14 -46 0
579 -14 46 0
-579 14 46 0
-579 -14 -46 0
580 15 -47 0
580 -15 47 0
-580 15 47 0
-580 -15 -47 0
581 16 -48 0
581 -16 48 0
-581 16 48 0
-581 -16 -48 0
582 566 567 568 569 570 571 572 573 574 575 576 577 578 579 580 581 0
-582 -581 0
-582 -580 0
-582 -579 0
-582 -578 0
-582 -577 0
-582 -576 0
-582 -575 0
-582 -574 0
-582 -573 0
-582 -572 0
-582 -571 0
-582 -570 0
-582 -569 0
-582 -568 0
-582 -567 0
-582 -566 0
583 373 -389 0
583 -373 389 0
-583 373 389 0
-583 -373 -389 0
584 374 -390 0
584 -374 390 0
-584 374 390 0
-584 -374 -390 0
585 375 -391 0
585 -375 391 0
-585 375 391 0
-585 -375 -391 0
586 376 -392 0
586 -376 392 0
-586 376 392 0
-586 -376 -392 0
587 377 -393 0
587 -377 393 0
-587 377 393 0
-587 -377 -393 0
588 378 -394 0
588 -378 394 0
-588 378 394 0
-588 -378 -394 0
589 379 -395 0
589 -379 395 0
-589 379 395 0
-589 -379 -395 0
590 380 -396 0
590 -380 396 0
-590 380 396 0
-590 -380 -396 0
591 381 -397 0
591 -381 397 0
-591 381 397 0
-591 -381 -397 0
592 382 -398 0
592 -382 398 0
-592 382 398 0
-592 -382 -398 0
593 383 -399 0
593 -383 399 0
-593 383 399 0
-593 -383 -399 0
594 384 -400 0
594 -384 400 0
-594 384 400 0
-594 -384 -400 0
595 385 -401 0
595 -385 401 0
-595 385 401 0
-595 -385 -401 0
596 386 -402 0
596 -386 402 0
-596 386 402 0
-596 -386 -402 0
597 387 -403 0
597 -387 403 0
-597 387 403 0
-597 -387 -403 0
598 388 -404 0
598 -388 404 0
-598 388 404 0
-598 -388 -404 0
599 -582 0
599 583 584 585 586 587 588 589 590 591 592 593 594 595 596 597 598 0
-599 -598 0
-599 -597 0
-599 -596 0
-599 -595 0
-599 -594 0
-599 -593 0
-599 -592 0
-599 -591 0
-599 -590 0
-599 -589 0
-599 -588 0
-599 -587 0
-599 -586 0
-599 -585 0
-599 -584 0
-599 -583 0
600 17 -49 0
600 -17 49 0
-600 17 49 0
-600 -17 -49 0
601 18 -50 0
601 -18 50 0
-601 18 50 0
-601 -18 -50 0
602 19 -51 0
602 -19 51 0
-602 19 51 0
-602 -19 -51 0
603 20 -52 0
603 -20 52 0
-603 20 52 0
-603 -20 -52 0
604 21 -53 0
604 -21 53 0
-604 21 53 0
-604 -21 -53 0
605 22 -54 0
605 -22 54 0
-605 22 54 0
-605 -22 -54 0
606 23 -55 0
606 -23 55 0
-606 23 55 0
-606 -23 -55 0
607 24 -56 0
607 -24 56 0
-607 24 56 0
-607 -24 -56 0
608 25 -57 0
608 -25 57 0
-608 25 57 0
-608 -25 -57 0
609 26 -58 0
609 -26 58 0
-609 26 58 0
-609 -26 -58 0
610 27 -59 0
610 -27 59 0
-610 27 59 0
-610 -27 -59 0
611 28 -60 0
611 -28 60 0
-611 28 60 0
-611 -28 -60 0
612 29 -61 0
612 -29 61 0
-612 29 61 0
-612 -29 -61 0
613 30 -62 0
613 -30 62 0
-613 30 62 0
-613 -30 -62 0
614 31 -63 0
614 -31 63 0
-614 31 63 0
-614 -31 -63 0
615 32 -64 0
615 -32 64 0
-615 32 64 0
-615 -32 -64 0
616 600 601 602 603 604 605 606 607 608 609 610 611 612 613 614 615 0
-616 -615 0
-616 -614 0
-616 -613 0
-616 -612 0
-616 -611 0
-616 -610 0
-616 -609 0
-616 -608 0
-616 -607 0
-616 -606 0
-616 -605 0
-616 -604 0
-616 -603 0
-616 -602 0
-616 -601 0
-616 -600 0
617 469 -485 0
617 -469 485 0
-617 469 485 0
-617 -469 -485 0
618 470 -486 0
618 -470 486 0
-618 470 486 0
-618 -470 -486 0
619 471 -487 0
619 -471 487 0
-619 471 487 0
-619 -471 -487 0
620 472 -488 0
620 -472 488 0
-620 472 488 0
-620 -472 -488 0
621 473 -489 0
621 -473 489 0
-621 473 489 0
-621 -473 -489 0
622 474 -490 0
622 -474 490 0
-622 474 490 0
-622 -474 -490 0
623 475 -491 0
623 -475 491 0
-623 475 491 0
-623 -475 -491 0
624 476 -492 0
624 -476 492 0
-624 476 492 0
-624 -476 -492 0
625 477 -493 0
625 -477 493 0
-625 477 493 0
-625 -477 -493 0
626 478 -494 0
626 -478 494 0
-626 478 494 0
-626 -478 -494 0
627 479 -495 0
627 -479 495 0
-627 479 495 0
-627 -479 -495 0
628 480 -496 0
628 -480 496 0
-628 480 496 0
-628 -480 -496 0
629 481 -497 0
629 -481 497 0
-629 481 497 0
-629 -481 -497 0
630 482 -498 0
630 -482 498 0
-630 482 498 0
-630 -482 -498 0
631 483 -499 0
631 -483 499 0
-631 483 499 0
-631 -483 -499 0
632 484 -500 0
632 -484 500 0
-632 484 500 0
-632 -484 -500 0
633 -616 0
633 617 618 619 620 621 622 623 624 625 626 627 628 629 630 631 632 0
-633 -632 0
-633 -631 0
-633 -630 0
-633 -629 0
-633 -628 0
-633 -627 0
-633 -626 0
-633 -625 0
-633 -624 0
-633 -623 0
-633 -622 0
-633 -621 0
-633 -620 0
-633 -619 0
-633 -618 0
-633 -617 0
